param set_len = 20;
param target := 628157538;
param values := [1] 108871701 [2] 32790618 [3] 74249793 [4] 11761006 [5] 34489709 [6] 50602981 [7] 12114462 [8] 131382961 [9] 126773631 [10] 36098646 [11] 93799245 [12] 61961820 [13] 36480145 [14] 611978 [15] 48201243 [16] 102033770 [17] 86180023 [18] 95455657 [19] 40253548 [20] 130632052 ;
